NAME          COPTPROB
OBJSENSE
  MIN
ROWS
 N  __OBJ___
 L  C1      
 L  C2      
 L  C3      
 L  C6      
 L  C7      
 L  C8      
 L  C10     
 L  C12     
 L  C13     
 L  C16     
 L  C17     
 L  C19     
 L  C21     
 L  C22     
 L  C23     
 L  C24     
 L  C26     
 L  C28     
 L  C30     
 L  C33     
 L  C34     
 L  C35     
 L  C37     
 L  C43     
 L  C46     
 L  C47     
 L  C48     
 L  C49     
 L  C51     
 L  C52     
 L  C53     
 L  C57     
 L  C60     
 L  C62     
 L  C64     
 L  C65     
 L  C66     
 L  C67     
 L  C69     
 L  C71     
 L  C72     
 L  C73     
 L  C75     
 L  C76     
 L  C77     
 L  C79     
 L  C81     
 L  C82     
 L  C83     
 L  C85     
 L  C86     
 L  C87     
 L  C90     
 L  C91     
 L  C92     
 L  C94     
 L  C95     
 L  C96     
 L  C100    
 L  C101    
 L  C102    
 L  C105    
 L  C106    
 L  C109    
 L  C110    
 L  C111    
 L  C113    
 L  C115    
 L  C117    
 L  C118    
 L  C119    
 L  C120    
 L  C121    
 L  C122    
 L  C123    
 L  C124    
 L  C125    
 L  C129    
 L  C130    
 L  C131    
 L  C132    
 L  C141    
 L  C142    
 L  C143    
 L  C144    
 L  C145    
 L  C146    
 L  C149    
 L  C151    
 L  C152    
 L  C154    
 L  C156    
 L  C157    
 L  C158    
 L  C160    
 L  C162    
 L  C163    
 L  C166    
 L  C169    
 L  C173    
 L  C175    
 L  C179    
 L  C180    
 L  C181    
 L  C182    
 L  C183    
 L  C185    
 L  C186    
 L  C187    
 L  C188    
 L  C190    
 L  C192    
 L  C194    
 L  C195    
 L  C199    
 L  C206    
 L  C207    
 L  C209    
 L  C210    
 L  C211    
 L  C212    
 L  C213    
 L  C215    
 L  C216    
 L  C221    
 L  C222    
 L  C224    
 L  C226    
 L  C227    
 L  C228    
 L  C229    
 L  C231    
 L  C237    
 L  C239    
 L  C240    
 L  C243    
 L  C248    
 L  C250    
 L  C251    
 L  C252    
 L  C254    
 L  C255    
 L  C257    
 L  C258    
 L  C259    
 L  C261    
 L  C262    
 L  C264    
 L  C265    
 L  C266    
 L  C270    
 L  C274    
 L  C275    
 L  C278    
 L  C279    
 L  C282    
 L  C283    
 L  C284    
 L  C285    
 L  C286    
 L  C289    
 L  C292    
 L  C293    
 L  C294    
 L  C295    
 L  C296    
 L  C297    
 L  C299    
 L  C301    
 L  C303    
 L  C304    
 L  C308    
 L  C310    
 L  C312    
 L  C316    
 L  C317    
 L  C319    
 L  C320    
 L  C322    
 L  C323    
 L  C324    
 L  C325    
 L  C326    
 L  C327    
 L  C328    
 L  C330    
 L  C332    
 L  C333    
 L  C335    
 L  C337    
 L  C338    
 L  C339    
 L  C340    
 L  C341    
 L  C342    
 L  C345    
 L  C346    
 L  C350    
 L  C351    
 L  C354    
 L  C356    
 L  C358    
 L  C362    
 L  C366    
 L  C367    
 L  C368    
 L  C372    
 L  C374    
 L  C375    
 L  C376    
 L  C379    
 L  C381    
 L  C382    
 L  C384    
 L  C390    
 L  C391    
 L  C392    
 L  C393    
 L  C394    
 L  C397    
 L  C398    
 L  C401    
 L  C403    
 L  C404    
 L  C405    
 L  C408    
 L  C409    
 L  C410    
 L  C415    
 L  C417    
 L  C418    
 L  C419    
 L  C420    
 L  C421    
 L  C422    
 L  C427    
 L  C434    
 L  C436    
 L  C439    
 L  C440    
 L  C441    
 L  C444    
 L  C446    
 L  C447    
 L  C448    
 L  C449    
 L  C451    
 L  C453    
 L  C457    
 L  C458    
 L  C459    
 L  C460    
 L  C461    
 L  C462    
 L  C465    
 L  C466    
 L  C468    
 L  C470    
 L  C471    
 L  C474    
 L  C475    
 L  C476    
 L  C477    
 L  C478    
 L  C481    
 L  C487    
 L  C488    
 L  C489    
 L  C490    
 L  C492    
 L  C496    
 L  C497    
 L  C499    
 L  C501    
 L  C502    
 L  C503    
 L  C504    
 L  C505    
 L  C506    
 L  C508    
 L  C509    
 L  C510    
 L  C511    
 L  C512    
 L  C513    
 L  C516    
 L  C517    
 L  C519    
 L  C520    
 L  C521    
 L  C525    
 L  C527    
 L  C532    
 L  C533    
 L  C535    
 L  C536    
 L  C541    
 L  C543    
 L  C547    
 L  C548    
 L  C550    
 L  C551    
 L  C552    
 L  C554    
 L  C555    
 L  C556    
 L  C558    
 L  C559    
 L  C560    
COLUMNS
    MARKER    'MARKER'                 'INTORG'
    x1        __OBJ___  -1
    x1        C22       1
    x1        C23       1
    x1        C77       1
    x1        C181      1
    x1        C261      1
    x1        C299      1
    x1        C327      1
    x1        C340      1
    x1        C342      1
    x1        C497      1
    x2        __OBJ___  -1
    x2        C156      1
    x2        C190      1
    x2        C237      1
    x2        C251      1
    x2        C339      1
    x2        C356      1
    x2        C496      1
    x3        __OBJ___  -1
    x3        C231      1
    x3        C304      1
    x3        C368      1
    x3        C415      1
    x3        C492      1
    x3        C533      1
    x3        C550      1
    x4        __OBJ___  -1
    x4        C43       1
    x4        C188      1
    x4        C255      1
    x4        C264      1
    x4        C301      1
    x4        C427      1
    x4        C519      1
    x5        __OBJ___  -1
    x5        C37       1
    x5        C76       1
    x5        C83       1
    x5        C90       1
    x5        C106      1
    x5        C119      1
    x5        C166      1
    x5        C209      1
    x5        C213      1
    x5        C237      1
    x5        C251      1
    x5        C258      1
    x5        C262      1
    x5        C279      1
    x5        C299      1
    x5        C304      1
    x5        C341      1
    x5        C350      1
    x5        C367      1
    x5        C368      1
    x5        C391      1
    x5        C427      1
    x5        C448      1
    x5        C458      1
    x5        C468      1
    x5        C552      1
    x8        __OBJ___  -1
    x8        C17       1
    x8        C105      1
    x8        C163      1
    x8        C166      1
    x8        C183      1
    x8        C212      1
    x8        C215      1
    x8        C237      1
    x8        C240      1
    x8        C258      1
    x8        C262      1
    x8        C324      1
    x8        C326      1
    x8        C341      1
    x8        C427      1
    x8        C458      1
    x8        C508      1
    x8        C521      1
    x9        __OBJ___  -1
    x9        C8        1
    x9        C23       1
    x9        C51       1
    x9        C53       1
    x9        C79       1
    x9        C110      1
    x9        C143      1
    x9        C162      1
    x9        C213      1
    x9        C222      1
    x9        C286      1
    x9        C299      1
    x9        C304      1
    x9        C340      1
    x9        C367      1
    x9        C409      1
    x9        C434      1
    x9        C460      1
    x9        C492      1
    x9        C517      1
    x9        C551      1
    x10       __OBJ___  -1
    x10       C1        1
    x10       C6        1
    x10       C46       1
    x10       C52       1
    x10       C185      1
    x10       C207      1
    x10       C210      1
    x10       C224      1
    x10       C283      1
    x10       C297      1
    x10       C312      1
    x10       C368      1
    x10       C382      1
    x10       C401      1
    x10       C403      1
    x10       C461      1
    x10       C511      1
    x12       __OBJ___  -1
    x12       C19       1
    x12       C34       1
    x12       C185      1
    x12       C216      1
    x12       C490      1
    x13       __OBJ___  -1
    x13       C16       1
    x13       C212      1
    x13       C239      1
    x13       C257      1
    x13       C279      1
    x13       C341      1
    x13       C468      1
    x14       __OBJ___  -1
    x14       C3        1
    x14       C52       1
    x14       C129      1
    x14       C160      1
    x14       C207      1
    x14       C215      1
    x14       C375      1
    x14       C404      1
    x14       C439      1
    x14       C440      1
    x14       C541      1
    x15       __OBJ___  -1
    x15       C33       1
    x15       C47       1
    x15       C49       1
    x15       C110      1
    x15       C213      1
    x15       C317      1
    x15       C332      1
    x15       C460      1
    x15       C466      1
    x15       C475      1
    x16       __OBJ___  -1
    x16       C22       1
    x16       C34       1
    x16       C100      1
    x16       C154      1
    x16       C157      1
    x16       C181      1
    x16       C182      1
    x16       C279      1
    x16       C285      1
    x16       C293      1
    x16       C408      1
    x16       C446      1
    x16       C448      1
    x16       C547      1
    x16       C559      1
    x17       __OBJ___  -1
    x17       C8        1
    x17       C48       1
    x17       C143      1
    x17       C211      1
    x17       C221      1
    x17       C257      1
    x17       C259      1
    x17       C278      1
    x17       C340      1
    x17       C342      1
    x17       C384      1
    x18       __OBJ___  -1
    x18       C13       1
    x18       C43       1
    x18       C64       1
    x18       C82       1
    x18       C152      1
    x18       C221      1
    x18       C226      1
    x18       C292      1
    x18       C294      1
    x18       C444      1
    x18       C547      1
    x19       __OBJ___  -1
    x19       C2        1
    x19       C37       1
    x19       C64       1
    x19       C76       1
    x19       C82       1
    x19       C83       1
    x19       C207      1
    x19       C391      1
    x20       __OBJ___  -1
    x20       C91       1
    x20       C152      1
    x20       C339      1
    x20       C393      1
    x20       C548      1
    x23       __OBJ___  -1
    x23       C82       1
    x23       C109      1
    x23       C121      1
    x23       C132      1
    x23       C158      1
    x23       C173      1
    x23       C209      1
    x23       C228      1
    x23       C250      1
    x23       C252      1
    x23       C346      1
    x23       C391      1
    x23       C410      1
    x23       C465      1
    x23       C501      1
    x24       __OBJ___  -1
    x24       C72       1
    x24       C326      1
    x25       __OBJ___  -1
    x25       C10       1
    x25       C26       1
    x25       C30       1
    x25       C66       1
    x25       C90       1
    x25       C111      1
    x25       C284      1
    x25       C417      1
    x25       C436      1
    x25       C462      1
    x25       C468      1
    x25       C552      1
    x26       __OBJ___  -1
    x26       C53       1
    x26       C292      1
    x26       C418      1
    x26       C461      1
    x26       C558      1
    x29       __OBJ___  -1
    x29       C132      1
    x29       C163      1
    x29       C333      1
    x29       C403      1
    x29       C476      1
    x30       __OBJ___  -1
    x30       C48       1
    x30       C94       1
    x30       C120      1
    x30       C376      1
    x30       C489      1
    x30       C502      1
    x30       C525      1
    x31       __OBJ___  -1
    x31       C57       1
    x31       C169      1
    x31       C194      1
    x31       C374      1
    x31       C393      1
    x31       C477      1
    x31       C478      1
    x32       __OBJ___  -1
    x32       C30       1
    x32       C53       1
    x32       C143      1
    x32       C462      1
    x33       __OBJ___  -1
    x33       C49       1
    x33       C91       1
    x33       C123      1
    x33       C192      1
    x33       C338      1
    x33       C509      1
    x36       __OBJ___  -1
    x36       C154      1
    x36       C179      1
    x36       C270      1
    x36       C533      1
    x37       __OBJ___  -1
    x37       C79       1
    x37       C457      1
    x38       __OBJ___  -1
    x38       C7        1
    x38       C24       1
    x38       C86       1
    x38       C278      1
    x38       C296      1
    x38       C477      1
    x38       C559      1
    x38       C560      1
    x40       __OBJ___  -1
    x40       C90       1
    x40       C101      1
    x40       C118      1
    x40       C124      1
    x40       C131      1
    x40       C397      1
    x40       C462      1
    x41       __OBJ___  -1
    x41       C151      1
    x41       C187      1
    x41       C248      1
    x41       C285      1
    x41       C453      1
    x41       C556      1
    x41       C558      1
    x42       __OBJ___  -1
    x42       C110      1
    x42       C142      1
    x42       C145      1
    x42       C195      1
    x42       C227      1
    x42       C266      1
    x42       C434      1
    x42       C532      1
    x43       __OBJ___  -1
    x43       C62       1
    x43       C130      1
    x43       C257      1
    x43       C278      1
    x43       C325      1
    x43       C362      1
    x43       C504      1
    x43       C510      1
    x44       __OBJ___  -1
    x44       C85       1
    x44       C87       1
    x44       C367      1
    x44       C375      1
    x44       C478      1
    x44       C516      1
    x44       C517      1
    x45       __OBJ___  -1
    x45       C94       1
    x45       C350      1
    x45       C358      1
    x45       C532      1
    x46       __OBJ___  -1
    x46       C119      1
    x46       C179      1
    x46       C552      1
    x48       __OBJ___  -1
    x48       C1        1
    x48       C270      1
    x48       C390      1
    x48       C536      1
    x49       __OBJ___  -1
    x49       C296      1
    x49       C358      1
    x49       C440      1
    x50       __OBJ___  -1
    x50       C129      1
    x50       C227      1
    x50       C327      1
    x50       C345      1
    x50       C346      1
    x51       __OBJ___  -1
    x51       C60       1
    x51       C73       1
    x51       C157      1
    x52       __OBJ___  -1
    x52       C51       1
    x52       C60       1
    x52       C183      1
    x52       C405      1
    x52       C421      1
    x52       C505      1
    x53       __OBJ___  -1
    x53       C13       1
    x53       C185      1
    x53       C312      1
    x53       C470      1
    x54       __OBJ___  -1
    x54       C33       1
    x54       C65       1
    x54       C289      1
    x54       C319      1
    x54       C366      1
    x54       C451      1
    x54       C519      1
    x55       __OBJ___  -1
    x55       C46       1
    x55       C224      1
    x55       C226      1
    x55       C261      1
    x56       __OBJ___  -1
    x56       C222      1
    x56       C320      1
    x56       C439      1
    x56       C492      1
    x57       __OBJ___  -1
    x57       C85       1
    x57       C335      1
    x57       C398      1
    x57       C408      1
    x57       C459      1
    x57       C466      1
    x57       C487      1
    x58       __OBJ___  -1
    x58       C390      1
    x58       C457      1
    x58       C532      1
    x59       __OBJ___  -1
    x59       C166      1
    x59       C322      1
    x59       C441      1
    x59       C512      1
    x60       __OBJ___  -1
    x60       C16       1
    x60       C222      1
    x60       C248      1
    x60       C474      1
    x61       __OBJ___  -1
    x61       C162      1
    x61       C250      1
    x62       __OBJ___  -1
    x62       C142      1
    x62       C173      1
    x63       __OBJ___  -1
    x63       C75       1
    x63       C181      1
    x63       C308      1
    x63       C404      1
    x64       __OBJ___  -1
    x64       C76       1
    x64       C125      1
    x64       C481      1
    x65       __OBJ___  -1
    x65       C26       1
    x65       C123      1
    x65       C527      1
    x66       __OBJ___  -1
    x66       C92       1
    x66       C130      1
    x66       C251      1
    x66       C448      1
    x67       __OBJ___  -1
    x67       C10       1
    x67       C156      1
    x67       C481      1
    x69       __OBJ___  -1
    x69       C17       1
    x69       C21       1
    x69       C96       1
    x69       C113      1
    x69       C282      1
    x69       C328      1
    x69       C475      1
    x70       __OBJ___  -1
    x70       C160      1
    x70       C180      1
    x70       C417      1
    x70       C504      1
    x71       __OBJ___  -1
    x71       C105      1
    x71       C175      1
    x71       C187      1
    x71       C319      1
    x72       __OBJ___  -1
    x72       C71       1
    x72       C109      1
    x72       C293      1
    x72       C394      1
    x73       __OBJ___  -1
    x73       C64       1
    x73       C117      1
    x73       C547      1
    x74       __OBJ___  -1
    x74       C30       1
    x74       C87       1
    x74       C381      1
    x75       __OBJ___  -1
    x75       C397      1
    x75       C499      1
    x75       C512      1
    x75       C527      1
    x75       C551      1
    x76       __OBJ___  -1
    x76       C72       1
    x76       C158      1
    x76       C243      1
    x76       C295      1
    x76       C310      1
    x76       C332      1
    x76       C372      1
    x77       __OBJ___  -1
    x77       C297      1
    x77       C436      1
    x77       C503      1
    x78       __OBJ___  -1
    x78       C374      1
    x78       C409      1
    x78       C410      1
    x78       C541      1
    x79       __OBJ___  -1
    x79       C95       1
    x79       C224      1
    x79       C312      1
    x79       C324      1
    x79       C488      1
    x80       __OBJ___  -1
    x80       C211      1
    x80       C337      1
    x80       C421      1
    x81       __OBJ___  -1
    x81       C195      1
    x81       C254      1
    x81       C397      1
    x81       C444      1
    x82       __OBJ___  -1
    x82       C37       1
    x82       C146      1
    x82       C275      1
    x82       C354      1
    x83       __OBJ___  -1
    x83       C7        1
    x83       C52       1
    x83       C548      1
    x84       __OBJ___  -1
    x84       C259      1
    x84       C295      1
    x84       C415      1
    x85       __OBJ___  -1
    x85       C6        1
    x85       C62       1
    x85       C100      1
    x86       __OBJ___  -1
    x86       C317      1
    x86       C503      1
    x87       __OBJ___  -1
    x87       C57       1
    x87       C328      1
    x87       C465      1
    x87       C474      1
    x88       __OBJ___  -1
    x88       C23       1
    x88       C124      1
    x88       C141      1
    x88       C255      1
    x89       __OBJ___  -1
    x89       C141      1
    x89       C151      1
    x89       C330      1
    x89       C420      1
    x90       __OBJ___  -1
    x90       C81       1
    x90       C384      1
    x90       C420      1
    x90       C449      1
    x90       C458      1
    x90       C508      1
    x91       __OBJ___  -1
    x91       C188      1
    x91       C282      1
    x91       C320      1
    x91       C506      1
    x92       __OBJ___  -1
    x92       C81       1
    x92       C175      1
    x92       C496      1
    x92       C499      1
    x93       __OBJ___  -1
    x93       C21       1
    x93       C403      1
    x94       __OBJ___  -1
    x94       C125      1
    x94       C286      1
    x94       C335      1
    x95       __OBJ___  -1
    x95       C67       1
    x95       C101      1
    x95       C113      1
    x95       C199      1
    x95       C325      1
    x96       __OBJ___  -1
    x96       C75       1
    x96       C169      1
    x96       C434      1
    x96       C543      1
    x97       __OBJ___  -1
    x97       C69       1
    x97       C303      1
    x97       C447      1
    x97       C453      1
    x97       C471      1
    x97       C501      1
    x97       C555      1
    x99       __OBJ___  -1
    x99       C163      1
    x99       C212      1
    x99       C489      1
    x99       C535      1
    x100      __OBJ___  -1
    x100      C83       1
    x100      C262      1
    x100      C392      1
    x100      C487      1
    x101      __OBJ___  -1
    x101      C122      1
    x101      C332      1
    x101      C382      1
    x101      C555      1
    x103      __OBJ___  -1
    x103      C12       1
    x103      C65       1
    x103      C194      1
    x103      C199      1
    x104      __OBJ___  -1
    x104      C410      1
    x104      C497      1
    x106      __OBJ___  -1
    x106      C66       1
    x106      C210      1
    x106      C513      1
    x107      __OBJ___  -1
    x107      C71       1
    x107      C240      1
    x107      C362      1
    x108      __OBJ___  -1
    x108      C144      1
    x108      C229      1
    x108      C274      1
    x108      C326      1
    x108      C342      1
    x109      __OBJ___  -1
    x109      C3        1
    x109      C67       1
    x109      C149      1
    x109      C316      1
    x109      C509      1
    x110      __OBJ___  -1
    x110      C186      1
    x110      C350      1
    x110      C513      1
    x112      __OBJ___  -1
    x112      C69       1
    x112      C354      1
    x112      C510      1
    x112      C535      1
    x113      __OBJ___  -1
    x113      C106      1
    x113      C325      1
    x114      __OBJ___  -1
    x114      C24       1
    x114      C186      1
    x114      C301      1
    x114      C376      1
    x114      C419      1
    x115      __OBJ___  -1
    x115      C310      1
    x115      C323      1
    x115      C338      1
    x115      C356      1
    x116      __OBJ___  -1
    x116      C316      1
    x116      C322      1
    x116      C394      1
    x117      __OBJ___  -1
    x117      C252      1
    x117      C308      1
    x117      C323      1
    x117      C525      1
    x118      __OBJ___  -1
    x118      C192      1
    x118      C258      1
    x118      C337      1
    x119      __OBJ___  -1
    x119      C216      1
    x119      C351      1
    x119      C459      1
    x120      __OBJ___  -1
    x120      C77       1
    x120      C149      1
    x120      C266      1
    x122      __OBJ___  -1
    x122      C118      1
    x122      C122      1
    x122      C146      1
    x122      C418      1
    x122      C554      1
    x123      __OBJ___  -1
    x123      C12       1
    x123      C35       1
    x123      C209      1
    x123      C379      1
    x123      C488      1
    x124      __OBJ___  -1
    x124      C119      1
    x124      C502      1
    x124      C506      1
    x125      __OBJ___  -1
    x125      C111      1
    x125      C182      1
    x126      __OBJ___  -1
    x126      C28       1
    x126      C96       1
    x126      C115      1
    x126      C144      1
    x126      C228      1
    x126      C283      1
    x127      __OBJ___  -1
    x127      C47       1
    x127      C190      1
    x127      C511      1
    x128      __OBJ___  -1
    x128      C117      1
    x128      C516      1
    x129      __OBJ___  -1
    x129      C2        1
    x129      C22       1
    x129      C120      1
    x130      __OBJ___  -1
    x130      C19       1
    x130      C303      1
    x130      C422      1
    x130      C554      1
    x131      __OBJ___  -1
    x131      C8        1
    x131      C73       1
    x131      C206      1
    x131      C379      1
    x132      __OBJ___  -1
    x132      C274      1
    x132      C284      1
    x132      C520      1
    x133      __OBJ___  -1
    x133      C254      1
    x133      C517      1
    x133      C521      1
    x134      __OBJ___  -1
    x134      C333      1
    x134      C471      1
    x135      __OBJ___  -1
    x135      C351      1
    x135      C372      1
    x136      __OBJ___  -1
    x136      C92       1
    x136      C206      1
    x136      C470      1
    x136      C556      1
    x137      __OBJ___  -1
    x137      C95       1
    x137      C422      1
    x137      C441      1
    x138      __OBJ___  -1
    x138      C79       1
    x138      C86       1
    x138      C460      1
    x139      __OBJ___  -1
    x139      C243      1
    x139      C264      1
    x139      C265      1
    x139      C345      1
    x139      C476      1
    x140      __OBJ___  -1
    x140      C131      1
    x140      C405      1
    x140      C451      1
    x140      C550      1
    x141      __OBJ___  -1
    x141      C265      1
    x141      C398      1
    x141      C520      1
    x142      __OBJ___  -1
    x142      C46       1
    x142      C366      1
    x142      C543      1
    x143      __OBJ___  -1
    x143      C28       1
    x143      C447      1
    x143      C508      1
    x144      __OBJ___  -1
    x144      C289      1
    x144      C490      1
    x145      __OBJ___  -1
    x145      C35       1
    x145      C102      1
    x145      C145      1
    x145      C231      1
    x145      C294      1
    x146      __OBJ___  -1
    x146      C180      1
    x146      C381      1
    x146      C446      1
    x147      __OBJ___  -1
    x147      C115      1
    x147      C239      1
    x147      C505      1
    x148      __OBJ___  -1
    x148      C102      1
    x148      C121      1
    x148      C449      1
    x148      C536      1
    x149      __OBJ___  -1
    x149      C275      1
    x149      C330      1
    x149      C392      1
    x149      C419      1
    x150      __OBJ___  -1
    x150      C229      1
    x150      C401      1
    x150      C560      1
    MARKER    'MARKER'                 'INTEND'
RHS
    RHS       __OBJ___  5
    RHS       C1        1
    RHS       C2        1
    RHS       C3        1
    RHS       C6        1
    RHS       C7        1
    RHS       C8        1
    RHS       C10       1
    RHS       C12       1
    RHS       C13       1
    RHS       C16       1
    RHS       C17       1
    RHS       C19       1
    RHS       C21       1
    RHS       C22       1
    RHS       C23       1
    RHS       C24       1
    RHS       C26       1
    RHS       C28       1
    RHS       C30       1
    RHS       C33       1
    RHS       C34       1
    RHS       C35       1
    RHS       C37       1
    RHS       C43       1
    RHS       C46       1
    RHS       C47       1
    RHS       C48       1
    RHS       C49       1
    RHS       C51       1
    RHS       C52       1
    RHS       C53       1
    RHS       C57       1
    RHS       C60       1
    RHS       C62       1
    RHS       C64       1
    RHS       C65       1
    RHS       C66       1
    RHS       C67       1
    RHS       C69       1
    RHS       C71       1
    RHS       C72       1
    RHS       C73       1
    RHS       C75       1
    RHS       C76       1
    RHS       C77       1
    RHS       C79       1
    RHS       C81       1
    RHS       C82       1
    RHS       C83       1
    RHS       C85       1
    RHS       C86       1
    RHS       C87       1
    RHS       C90       1
    RHS       C91       1
    RHS       C92       1
    RHS       C94       1
    RHS       C95       1
    RHS       C96       1
    RHS       C100      1
    RHS       C101      1
    RHS       C102      1
    RHS       C105      1
    RHS       C106      1
    RHS       C109      1
    RHS       C110      1
    RHS       C111      1
    RHS       C113      1
    RHS       C115      1
    RHS       C117      1
    RHS       C118      1
    RHS       C119      1
    RHS       C120      1
    RHS       C121      1
    RHS       C122      1
    RHS       C123      1
    RHS       C124      1
    RHS       C125      1
    RHS       C129      1
    RHS       C130      1
    RHS       C131      1
    RHS       C132      1
    RHS       C141      1
    RHS       C142      1
    RHS       C143      1
    RHS       C144      1
    RHS       C145      1
    RHS       C146      1
    RHS       C149      1
    RHS       C151      1
    RHS       C152      1
    RHS       C154      1
    RHS       C156      1
    RHS       C157      1
    RHS       C158      1
    RHS       C160      1
    RHS       C162      1
    RHS       C163      1
    RHS       C166      1
    RHS       C169      1
    RHS       C173      1
    RHS       C175      1
    RHS       C179      1
    RHS       C180      1
    RHS       C181      1
    RHS       C182      1
    RHS       C183      1
    RHS       C185      1
    RHS       C186      1
    RHS       C187      1
    RHS       C188      1
    RHS       C190      1
    RHS       C192      1
    RHS       C194      1
    RHS       C195      1
    RHS       C199      1
    RHS       C206      1
    RHS       C207      1
    RHS       C209      1
    RHS       C210      1
    RHS       C211      1
    RHS       C212      1
    RHS       C213      1
    RHS       C215      1
    RHS       C216      1
    RHS       C221      1
    RHS       C222      1
    RHS       C224      1
    RHS       C226      1
    RHS       C227      1
    RHS       C228      1
    RHS       C229      1
    RHS       C231      1
    RHS       C237      1
    RHS       C239      1
    RHS       C240      1
    RHS       C243      1
    RHS       C248      1
    RHS       C250      1
    RHS       C251      1
    RHS       C252      1
    RHS       C254      1
    RHS       C255      1
    RHS       C257      1
    RHS       C258      1
    RHS       C259      1
    RHS       C261      1
    RHS       C262      1
    RHS       C264      1
    RHS       C265      1
    RHS       C266      1
    RHS       C270      1
    RHS       C274      1
    RHS       C275      1
    RHS       C278      1
    RHS       C279      1
    RHS       C282      1
    RHS       C283      1
    RHS       C284      1
    RHS       C285      1
    RHS       C286      1
    RHS       C289      1
    RHS       C292      1
    RHS       C293      1
    RHS       C294      1
    RHS       C295      1
    RHS       C296      1
    RHS       C297      1
    RHS       C299      1
    RHS       C301      1
    RHS       C303      1
    RHS       C304      1
    RHS       C308      1
    RHS       C310      1
    RHS       C312      1
    RHS       C316      1
    RHS       C317      1
    RHS       C319      1
    RHS       C320      1
    RHS       C322      1
    RHS       C323      1
    RHS       C324      1
    RHS       C325      1
    RHS       C326      1
    RHS       C327      1
    RHS       C328      1
    RHS       C330      1
    RHS       C332      1
    RHS       C333      1
    RHS       C335      1
    RHS       C337      1
    RHS       C338      1
    RHS       C339      1
    RHS       C340      1
    RHS       C341      1
    RHS       C342      1
    RHS       C345      1
    RHS       C346      1
    RHS       C350      1
    RHS       C351      1
    RHS       C354      1
    RHS       C356      1
    RHS       C358      1
    RHS       C362      1
    RHS       C366      1
    RHS       C367      1
    RHS       C368      1
    RHS       C372      1
    RHS       C374      1
    RHS       C375      1
    RHS       C376      1
    RHS       C379      1
    RHS       C381      1
    RHS       C382      1
    RHS       C384      1
    RHS       C390      1
    RHS       C391      1
    RHS       C392      1
    RHS       C393      1
    RHS       C394      1
    RHS       C397      1
    RHS       C398      1
    RHS       C401      1
    RHS       C403      1
    RHS       C404      1
    RHS       C405      1
    RHS       C408      1
    RHS       C409      1
    RHS       C410      1
    RHS       C415      1
    RHS       C417      1
    RHS       C418      1
    RHS       C419      1
    RHS       C420      1
    RHS       C421      1
    RHS       C422      1
    RHS       C427      1
    RHS       C434      1
    RHS       C436      1
    RHS       C439      1
    RHS       C440      1
    RHS       C441      1
    RHS       C444      1
    RHS       C446      1
    RHS       C447      1
    RHS       C448      1
    RHS       C449      1
    RHS       C451      1
    RHS       C453      1
    RHS       C457      1
    RHS       C458      1
    RHS       C459      1
    RHS       C460      1
    RHS       C461      1
    RHS       C462      1
    RHS       C465      1
    RHS       C466      1
    RHS       C468      1
    RHS       C470      1
    RHS       C471      1
    RHS       C474      1
    RHS       C475      1
    RHS       C476      1
    RHS       C477      1
    RHS       C478      1
    RHS       C481      1
    RHS       C487      1
    RHS       C488      1
    RHS       C489      1
    RHS       C490      1
    RHS       C492      1
    RHS       C496      1
    RHS       C497      1
    RHS       C499      1
    RHS       C501      1
    RHS       C502      1
    RHS       C503      1
    RHS       C504      1
    RHS       C505      1
    RHS       C506      1
    RHS       C508      1
    RHS       C509      1
    RHS       C510      1
    RHS       C511      1
    RHS       C512      1
    RHS       C513      1
    RHS       C516      1
    RHS       C517      1
    RHS       C519      1
    RHS       C520      1
    RHS       C521      1
    RHS       C525      1
    RHS       C527      1
    RHS       C532      1
    RHS       C533      1
    RHS       C535      1
    RHS       C536      1
    RHS       C541      1
    RHS       C543      1
    RHS       C547      1
    RHS       C548      1
    RHS       C550      1
    RHS       C551      1
    RHS       C552      1
    RHS       C554      1
    RHS       C555      1
    RHS       C556      1
    RHS       C558      1
    RHS       C559      1
    RHS       C560      1
BOUNDS
 UP BOUND     x1        1
 UP BOUND     x2        1
 UP BOUND     x3        1
 UP BOUND     x4        1
 UP BOUND     x5        1
 UP BOUND     x8        1
 UP BOUND     x9        1
 UP BOUND     x10       1
 UP BOUND     x12       1
 UP BOUND     x13       1
 UP BOUND     x14       1
 UP BOUND     x15       1
 UP BOUND     x16       1
 UP BOUND     x17       1
 UP BOUND     x18       1
 UP BOUND     x19       1
 UP BOUND     x20       1
 UP BOUND     x23       1
 UP BOUND     x24       1
 UP BOUND     x25       1
 UP BOUND     x26       1
 UP BOUND     x29       1
 UP BOUND     x30       1
 UP BOUND     x31       1
 UP BOUND     x32       1
 UP BOUND     x33       1
 UP BOUND     x36       1
 UP BOUND     x37       1
 UP BOUND     x38       1
 UP BOUND     x40       1
 UP BOUND     x41       1
 UP BOUND     x42       1
 UP BOUND     x43       1
 UP BOUND     x44       1
 UP BOUND     x45       1
 UP BOUND     x46       1
 UP BOUND     x48       1
 UP BOUND     x49       1
 UP BOUND     x50       1
 UP BOUND     x51       1
 UP BOUND     x52       1
 UP BOUND     x53       1
 UP BOUND     x54       1
 UP BOUND     x55       1
 UP BOUND     x56       1
 UP BOUND     x57       1
 UP BOUND     x58       1
 UP BOUND     x59       1
 UP BOUND     x60       1
 UP BOUND     x61       1
 UP BOUND     x62       1
 UP BOUND     x63       1
 UP BOUND     x64       1
 UP BOUND     x65       1
 UP BOUND     x66       1
 UP BOUND     x67       1
 UP BOUND     x69       1
 UP BOUND     x70       1
 UP BOUND     x71       1
 UP BOUND     x72       1
 UP BOUND     x73       1
 UP BOUND     x74       1
 UP BOUND     x75       1
 UP BOUND     x76       1
 UP BOUND     x77       1
 UP BOUND     x78       1
 UP BOUND     x79       1
 UP BOUND     x80       1
 UP BOUND     x81       1
 UP BOUND     x82       1
 UP BOUND     x83       1
 UP BOUND     x84       1
 UP BOUND     x85       1
 UP BOUND     x86       1
 UP BOUND     x87       1
 UP BOUND     x88       1
 UP BOUND     x89       1
 UP BOUND     x90       1
 UP BOUND     x91       1
 UP BOUND     x92       1
 UP BOUND     x93       1
 UP BOUND     x94       1
 UP BOUND     x95       1
 UP BOUND     x96       1
 UP BOUND     x97       1
 UP BOUND     x99       1
 UP BOUND     x100      1
 UP BOUND     x101      1
 UP BOUND     x103      1
 UP BOUND     x104      1
 UP BOUND     x106      1
 UP BOUND     x107      1
 UP BOUND     x108      1
 UP BOUND     x109      1
 UP BOUND     x110      1
 UP BOUND     x112      1
 UP BOUND     x113      1
 UP BOUND     x114      1
 UP BOUND     x115      1
 UP BOUND     x116      1
 UP BOUND     x117      1
 UP BOUND     x118      1
 UP BOUND     x119      1
 UP BOUND     x120      1
 UP BOUND     x122      1
 UP BOUND     x123      1
 UP BOUND     x124      1
 UP BOUND     x125      1
 UP BOUND     x126      1
 UP BOUND     x127      1
 UP BOUND     x128      1
 UP BOUND     x129      1
 UP BOUND     x130      1
 UP BOUND     x131      1
 UP BOUND     x132      1
 UP BOUND     x133      1
 UP BOUND     x134      1
 UP BOUND     x135      1
 UP BOUND     x136      1
 UP BOUND     x137      1
 UP BOUND     x138      1
 UP BOUND     x139      1
 UP BOUND     x140      1
 UP BOUND     x141      1
 UP BOUND     x142      1
 UP BOUND     x143      1
 UP BOUND     x144      1
 UP BOUND     x145      1
 UP BOUND     x146      1
 UP BOUND     x147      1
 UP BOUND     x148      1
 UP BOUND     x149      1
 UP BOUND     x150      1
ENDATA
